5 5
0 83 3 72 1 37 4 95 2 27
0 13 2 6 4 65 1 30 3 75
0 52 4 41 1 95 3 80 2 15
3 5 1 15 4 1 0 15 2 60
2 48 3 54 4 55 1 72 0 86
-1
0 1 2 4 5
0 2 5
0 2 5
0 1 3 5
0 3 5
-2
125 159 418 439
24 243
117 335
7 30 122
208 500

415 6
10 5 0 18 24
16 12 8 2 23
20 6 19 14 4
15 21 1 13 9
17 11 7 22 3
